\ Model firm
\ LP format - for model browsing. Use MPS format to capture full model detail.
Maximize
  25.14012247595877 output - 5 emission + [ - 0.7680445610939324 output ^2
   + 1.136089122187865 output * emission - 0.5680445610939323 emission ^2
   ] / 2 
Subject To
 R0: - output + emission <= 0
Bounds
End
